# Solution for model earliness
# Objective value = 1.9693000000000087e+01
E(i1) 0
E(i2) 0
E(i3) 9.8500000000003141e-01
E(i4) 4.8300000000006449e-01
E(i5) 0
E(i6) 7.8899999999998727e-01
E(i7) 1.8640000000000718e+00
E(i8) 0
E(i9) 0
E(i10) 4.9199999999990141e-01
E(i11) 2.7739999999999441e+00
E(i12) 0
E(i13) 8.3560000000000336e+00
E(i14) 7.2400000000007125e-01
E(i15) 0
E(i16) 0
E(i17) 1.2500000000000071e+00
E(i18) 0
E(i19) 0
E(i20) 1.0699999999992826e-01
E(i21) 1.8690000000000460e+00
E(i22) 0
Y(i1,u1) 0
Y(i1,u4) 1
Y(i2,u1) 0
Y(i2,u4) 1
Y(i3,u1) 0
Y(i3,u4) 1
Y(i4,u3) 1
Y(i4,u4) 0
Y(i5,u3) 0
Y(i5,u4) 1
Y(i6,u1) 0
Y(i6,u4) 1
Y(i7,u1) 0
Y(i7,u3) 1
Y(i7,u4) 0
Y(i8,u3) 0
Y(i8,u4) 1
Y(i9,u3) 1
Y(i9,u4) 0
Y(i10,u2) 1
Y(i11,u2) 1
Y(i11,u4) 0
Y(i12,u2) 1
Y(i12,u3) 0
Y(i12,u4) 0
Y(i13,u1) 1
Y(i13,u4) 0
Y(i14,u1) 1
Y(i14,u4) 0
Y(i15,u1) 0
Y(i15,u4) 1
Y(i16,u1) 1
Y(i16,u4) 0
Y(i17,u1) 1
Y(i17,u4) 0
Y(i18,u2) 1
Y(i19,u2) 0
Y(i19,u4) 1
Y(i20,u1) 0
Y(i20,u3) 0
Y(i20,u4) 1
Y(i21,u1) 0
Y(i21,u3) 1
Y(i22,u3) 1
C(i1) 15
C(i2) 30
C(i3) 2.1014999999999969e+01
C(i4) 2.4516999999999936e+01
C(i5) 20
C(i6) 2.9211000000000013e+01
C(i7) 1.9135999999999928e+01
C(i8) 26
C(i9) 30
C(i10) 2.8508000000000099e+01
C(i11) 2.7226000000000056e+01
C(i12) 21
C(i13) 2.1643999999999966e+01
C(i14) 2.4275999999999929e+01
C(i15) 24
C(i16) 30
C(i17) 2.8749999999999993e+01
C(i18) 30
C(i19) 13
C(i20) 1.8893000000000072e+01
C(i21) 2.8130999999999954e+01
C(i22) 20
Seq(i1,i2,u1) 0
X(i1,i2,u1) 0
Seq(i1,i2,u4) 0
X(i1,i2,u4) 1
X(i1,i3,u1) 0
X(i1,i3,u4) 1
Seq(i1,i4,u4) 0
X(i1,i4,u4) 0
Seq(i1,i5,u4) 0
X(i1,i5,u4) 1
Seq(i1,i6,u1) 0
X(i1,i6,u1) 0
Seq(i1,i6,u4) 0
X(i1,i6,u4) 1
X(i1,i7,u1) 0
X(i1,i7,u4) 0
Seq(i1,i8,u4) 0
X(i1,i8,u4) 1
X(i1,i9,u4) 0
Seq(i1,i11,u4) 0
X(i1,i11,u4) 0
Seq(i1,i12,u4) 0
X(i1,i12,u4) 0
Seq(i1,i13,u1) 0
X(i1,i13,u1) 0
Seq(i1,i13,u4) 0
X(i1,i13,u4) 0
Seq(i1,i14,u1) 0
X(i1,i14,u1) 0
Seq(i1,i14,u4) 0
X(i1,i14,u4) 0
Seq(i1,i15,u1) 0
X(i1,i15,u1) 0
Seq(i1,i15,u4) 0
X(i1,i15,u4) 1
Seq(i1,i16,u1) 0
X(i1,i16,u1) 0
Seq(i1,i16,u4) 0
X(i1,i16,u4) 0
Seq(i1,i17,u1) 0
X(i1,i17,u1) 0
Seq(i1,i17,u4) 0
X(i1,i17,u4) 0
Seq(i1,i19,u4) 0
X(i1,i19,u4) 0
Seq(i1,i20,u1) 0
X(i1,i20,u1) 0
Seq(i1,i20,u4) 1
X(i1,i20,u4) 1
X(i1,i21,u1) 0
Seq(i2,i1,u1) 0
X(i2,i1,u1) 0
Seq(i2,i1,u4) 0
X(i2,i1,u4) 0
Seq(i2,i3,u1) 0
X(i2,i3,u1) 0
Seq(i2,i3,u4) 0
X(i2,i3,u4) 0
Seq(i2,i4,u4) 0
X(i2,i4,u4) 0
Seq(i2,i5,u4) 0
X(i2,i5,u4) 0
Seq(i2,i6,u1) 0
X(i2,i6,u1) 0
Seq(i2,i6,u4) 0
X(i2,i6,u4) 0
Seq(i2,i7,u1) 0
X(i2,i7,u1) 0
Seq(i2,i7,u4) 0
X(i2,i7,u4) 0
Seq(i2,i8,u4) 0
X(i2,i8,u4) 0
Seq(i2,i9,u4) 0
X(i2,i9,u4) 0
Seq(i2,i11,u4) 0
X(i2,i11,u4) 0
Seq(i2,i12,u4) 0
X(i2,i12,u4) 0
Seq(i2,i13,u1) 0
X(i2,i13,u1) 0
Seq(i2,i13,u4) 0
X(i2,i13,u4) 0
Seq(i2,i14,u1) 0
X(i2,i14,u1) 0
Seq(i2,i14,u4) 0
X(i2,i14,u4) 0
Seq(i2,i15,u1) 0
X(i2,i15,u1) 0
Seq(i2,i15,u4) 0
X(i2,i15,u4) 0
X(i2,i16,u1) 0
X(i2,i16,u4) 0
Seq(i2,i17,u1) 0
X(i2,i17,u1) 0
Seq(i2,i17,u4) 0
X(i2,i17,u4) 0
Seq(i2,i19,u4) 0
X(i2,i19,u4) 0
Seq(i2,i20,u1) 0
X(i2,i20,u1) 0
Seq(i2,i20,u4) 0
X(i2,i20,u4) 0
X(i2,i21,u1) 0
Seq(i3,i1,u1) 0
X(i3,i1,u1) 0
Seq(i3,i1,u4) 0
X(i3,i1,u4) 0
Seq(i3,i2,u1) 0
X(i3,i2,u1) 0
Seq(i3,i2,u4) 0
X(i3,i2,u4) 1
Seq(i3,i4,u4) 0
X(i3,i4,u4) 0
Seq(i3,i5,u4) 0
X(i3,i5,u4) 0
Seq(i3,i6,u1) 0
X(i3,i6,u1) 0
Seq(i3,i6,u4) 0
X(i3,i6,u4) 1
Seq(i3,i7,u1) 0
X(i3,i7,u1) 0
Seq(i3,i7,u4) 0
X(i3,i7,u4) 0
Seq(i3,i8,u4) 0
X(i3,i8,u4) 1
Seq(i3,i9,u4) 0
X(i3,i9,u4) 0
Seq(i3,i11,u4) 0
X(i3,i11,u4) 0
Seq(i3,i12,u4) 0
X(i3,i12,u4) 0
Seq(i3,i13,u1) 0
X(i3,i13,u1) 0
Seq(i3,i13,u4) 0
X(i3,i13,u4) 0
X(i3,i14,u1) 0
X(i3,i14,u4) 0
X(i3,i15,u1) 0
X(i3,i15,u4) 1
Seq(i3,i16,u1) 0
X(i3,i16,u1) 0
Seq(i3,i16,u4) 0
X(i3,i16,u4) 0
Seq(i3,i17,u1) 0
X(i3,i17,u1) 0
Seq(i3,i17,u4) 0
X(i3,i17,u4) 0
Seq(i3,i19,u4) 0
X(i3,i19,u4) 0
Seq(i3,i20,u1) 0
X(i3,i20,u1) 0
Seq(i3,i20,u4) 0
X(i3,i20,u4) 0
X(i3,i21,u1) 0
Seq(i4,i1,u4) 0
X(i4,i1,u4) 0
Seq(i4,i2,u4) 0
X(i4,i2,u4) 0
Seq(i4,i3,u4) 0
X(i4,i3,u4) 0
Seq(i4,i5,u3) 0
X(i4,i5,u3) 0
Seq(i4,i5,u4) 0
X(i4,i5,u4) 0
Seq(i4,i6,u4) 0
X(i4,i6,u4) 0
Seq(i4,i7,u3) 0
X(i4,i7,u3) 0
Seq(i4,i7,u4) 0
X(i4,i7,u4) 0
X(i4,i8,u3) 0
X(i4,i8,u4) 0
Seq(i4,i9,u3) 0
X(i4,i9,u3) 1
Seq(i4,i9,u4) 0
X(i4,i9,u4) 0
Seq(i4,i11,u4) 0
X(i4,i11,u4) 0
Seq(i4,i12,u3) 0
X(i4,i12,u3) 0
Seq(i4,i12,u4) 0
X(i4,i12,u4) 0
Seq(i4,i13,u4) 0
X(i4,i13,u4) 0
Seq(i4,i14,u4) 0
X(i4,i14,u4) 0
Seq(i4,i15,u4) 0
X(i4,i15,u4) 0
Seq(i4,i16,u4) 0
X(i4,i16,u4) 0
Seq(i4,i17,u4) 0
X(i4,i17,u4) 0
Seq(i4,i19,u4) 0
X(i4,i19,u4) 0
Seq(i4,i20,u3) 0
X(i4,i20,u3) 0
Seq(i4,i20,u4) 0
X(i4,i20,u4) 0
X(i4,i21,u3) 1
X(i4,i22,u3) 0
Seq(i5,i1,u4) 0
X(i5,i1,u4) 0
Seq(i5,i2,u4) 0
X(i5,i2,u4) 1
X(i5,i3,u4) 1
Seq(i5,i4,u3) 0
X(i5,i4,u3) 0
Seq(i5,i4,u4) 0
X(i5,i4,u4) 0
Seq(i5,i6,u4) 0
X(i5,i6,u4) 1
Seq(i5,i7,u3) 0
X(i5,i7,u3) 0
Seq(i5,i7,u4) 0
X(i5,i7,u4) 0
Seq(i5,i8,u3) 0
X(i5,i8,u3) 0
Seq(i5,i8,u4) 0
X(i5,i8,u4) 1
Seq(i5,i9,u3) 0
X(i5,i9,u3) 0
Seq(i5,i9,u4) 0
X(i5,i9,u4) 0
Seq(i5,i11,u4) 0
X(i5,i11,u4) 0
Seq(i5,i12,u3) 0
X(i5,i12,u3) 0
Seq(i5,i12,u4) 0
X(i5,i12,u4) 0
Seq(i5,i13,u4) 0
X(i5,i13,u4) 0
Seq(i5,i14,u4) 0
X(i5,i14,u4) 0
Seq(i5,i15,u4) 0
X(i5,i15,u4) 1
Seq(i5,i16,u4) 0
X(i5,i16,u4) 0
Seq(i5,i17,u4) 0
X(i5,i17,u4) 0
Seq(i5,i19,u4) 0
X(i5,i19,u4) 0
Seq(i5,i20,u3) 0
X(i5,i20,u3) 0
Seq(i5,i20,u4) 0
X(i5,i20,u4) 0
X(i5,i21,u3) 0
X(i5,i22,u3) 0
Seq(i6,i1,u1) 0
X(i6,i1,u1) 0
Seq(i6,i1,u4) 0
X(i6,i1,u4) 0
X(i6,i2,u1) 0
X(i6,i2,u4) 1
Seq(i6,i3,u1) 0
X(i6,i3,u1) 0
Seq(i6,i3,u4) 0
X(i6,i3,u4) 0
Seq(i6,i4,u4) 0
X(i6,i4,u4) 0
Seq(i6,i5,u4) 0
X(i6,i5,u4) 0
Seq(i6,i7,u1) 0
X(i6,i7,u1) 0
Seq(i6,i7,u4) 0
X(i6,i7,u4) 0
Seq(i6,i8,u4) 0
X(i6,i8,u4) 0
Seq(i6,i9,u4) 0
X(i6,i9,u4) 0
Seq(i6,i11,u4) 0
X(i6,i11,u4) 0
Seq(i6,i12,u4) 0
X(i6,i12,u4) 0
Seq(i6,i13,u1) 0
X(i6,i13,u1) 0
Seq(i6,i13,u4) 0
X(i6,i13,u4) 0
Seq(i6,i14,u1) 0
X(i6,i14,u1) 0
Seq(i6,i14,u4) 0
X(i6,i14,u4) 0
Seq(i6,i15,u1) 0
X(i6,i15,u1) 0
Seq(i6,i15,u4) 0
X(i6,i15,u4) 0
Seq(i6,i16,u1) 0
X(i6,i16,u1) 0
Seq(i6,i16,u4) 0
X(i6,i16,u4) 0
Seq(i6,i17,u1) 0
X(i6,i17,u1) 0
Seq(i6,i17,u4) 0
X(i6,i17,u4) 0
Seq(i6,i19,u4) 0
X(i6,i19,u4) 0
Seq(i6,i20,u1) 0
X(i6,i20,u1) 0
Seq(i6,i20,u4) 0
X(i6,i20,u4) 0
X(i6,i21,u1) 0
Seq(i7,i1,u1) 0
X(i7,i1,u1) 0
Seq(i7,i1,u4) 0
X(i7,i1,u4) 0
Seq(i7,i2,u1) 0
X(i7,i2,u1) 0
Seq(i7,i2,u4) 0
X(i7,i2,u4) 0
X(i7,i3,u1) 0
X(i7,i3,u4) 0
X(i7,i4,u3) 1
X(i7,i4,u4) 0
Seq(i7,i5,u3) 0
X(i7,i5,u3) 0
Seq(i7,i5,u4) 0
X(i7,i5,u4) 0
Seq(i7,i6,u1) 0
X(i7,i6,u1) 0
Seq(i7,i6,u4) 0
X(i7,i6,u4) 0
Seq(i7,i8,u3) 0
X(i7,i8,u3) 0
Seq(i7,i8,u4) 0
X(i7,i8,u4) 0
Seq(i7,i9,u3) 0
X(i7,i9,u3) 1
Seq(i7,i9,u4) 0
X(i7,i9,u4) 0
Seq(i7,i11,u4) 0
X(i7,i11,u4) 0
Seq(i7,i12,u3) 0
X(i7,i12,u3) 0
Seq(i7,i12,u4) 0
X(i7,i12,u4) 0
Seq(i7,i13,u1) 0
X(i7,i13,u1) 0
Seq(i7,i13,u4) 0
X(i7,i13,u4) 0
Seq(i7,i14,u1) 0
X(i7,i14,u1) 0
Seq(i7,i14,u4) 0
X(i7,i14,u4) 0
Seq(i7,i15,u1) 0
X(i7,i15,u1) 0
Seq(i7,i15,u4) 0
X(i7,i15,u4) 0
Seq(i7,i16,u1) 0
X(i7,i16,u1) 0
Seq(i7,i16,u4) 0
X(i7,i16,u4) 0
Seq(i7,i17,u1) 0
X(i7,i17,u1) 0
Seq(i7,i17,u4) 0
X(i7,i17,u4) 0
Seq(i7,i19,u4) 0
X(i7,i19,u4) 0
Seq(i7,i20,u1) 0
X(i7,i20,u1) 0
Seq(i7,i20,u3) 0
X(i7,i20,u3) 0
Seq(i7,i20,u4) 0
X(i7,i20,u4) 0
X(i7,i21,u1) 0
X(i7,i21,u3) 1
X(i7,i22,u3) 1
Seq(i8,i1,u4) 0
X(i8,i1,u4) 0
Seq(i8,i2,u4) 0
X(i8,i2,u4) 1
Seq(i8,i3,u4) 0
X(i8,i3,u4) 0
Seq(i8,i4,u3) 0
X(i8,i4,u3) 0
Seq(i8,i4,u4) 0
X(i8,i4,u4) 0
Seq(i8,i5,u3) 0
X(i8,i5,u3) 0
Seq(i8,i5,u4) 0
X(i8,i5,u4) 0
X(i8,i6,u4) 1
Seq(i8,i7,u3) 0
X(i8,i7,u3) 0
Seq(i8,i7,u4) 0
X(i8,i7,u4) 0
Seq(i8,i9,u3) 0
X(i8,i9,u3) 0
Seq(i8,i9,u4) 0
X(i8,i9,u4) 0
Seq(i8,i11,u4) 0
X(i8,i11,u4) 0
Seq(i8,i12,u3) 0
X(i8,i12,u3) 0
Seq(i8,i12,u4) 0
X(i8,i12,u4) 0
Seq(i8,i13,u4) 0
X(i8,i13,u4) 0
Seq(i8,i14,u4) 0
X(i8,i14,u4) 0
Seq(i8,i15,u4) 0
X(i8,i15,u4) 0
Seq(i8,i16,u4) 0
X(i8,i16,u4) 0
Seq(i8,i17,u4) 0
X(i8,i17,u4) 0
Seq(i8,i19,u4) 0
X(i8,i19,u4) 0
Seq(i8,i20,u3) 0
X(i8,i20,u3) 0
Seq(i8,i20,u4) 0
X(i8,i20,u4) 0
X(i8,i21,u3) 0
X(i8,i22,u3) 0
Seq(i9,i1,u4) 1
X(i9,i1,u4) 0
Seq(i9,i2,u4) 0
X(i9,i2,u4) 0
Seq(i9,i3,u4) 0
X(i9,i3,u4) 0
Seq(i9,i4,u3) 0
X(i9,i4,u3) 0
Seq(i9,i4,u4) 0
X(i9,i4,u4) 0
Seq(i9,i5,u3) 0
X(i9,i5,u3) 0
Seq(i9,i5,u4) 0
X(i9,i5,u4) 0
Seq(i9,i6,u4) 0
X(i9,i6,u4) 0
Seq(i9,i7,u3) 0
X(i9,i7,u3) 0
Seq(i9,i7,u4) 0
X(i9,i7,u4) 0
Seq(i9,i8,u3) 0
X(i9,i8,u3) 0
Seq(i9,i8,u4) 0
X(i9,i8,u4) 0
Seq(i9,i11,u4) 0
X(i9,i11,u4) 0
Seq(i9,i12,u3) 0
X(i9,i12,u3) 0
Seq(i9,i12,u4) 0
X(i9,i12,u4) 0
Seq(i9,i13,u4) 0
X(i9,i13,u4) 0
Seq(i9,i14,u4) 0
X(i9,i14,u4) 0
Seq(i9,i15,u4) 0
X(i9,i15,u4) 0
Seq(i9,i16,u4) 0
X(i9,i16,u4) 0
Seq(i9,i17,u4) 0
X(i9,i17,u4) 0
Seq(i9,i19,u4) 0
X(i9,i19,u4) 0
Seq(i9,i20,u3) 0
X(i9,i20,u3) 0
Seq(i9,i20,u4) 0
X(i9,i20,u4) 0
X(i9,i21,u3) 0
X(i9,i22,u3) 0
Seq(i10,i11,u2) 0
X(i10,i11,u2) 0
Seq(i10,i12,u2) 0
X(i10,i12,u2) 0
X(i10,i18,u2) 1
Seq(i10,i19,u2) 0
X(i10,i19,u2) 0
Seq(i11,i1,u4) 0
X(i11,i1,u4) 0
Seq(i11,i2,u4) 0
X(i11,i2,u4) 0
Seq(i11,i3,u4) 0
X(i11,i3,u4) 0
Seq(i11,i4,u4) 0
X(i11,i4,u4) 0
Seq(i11,i5,u4) 0
X(i11,i5,u4) 0
Seq(i11,i6,u4) 0
X(i11,i6,u4) 0
Seq(i11,i7,u4) 0
X(i11,i7,u4) 0
Seq(i11,i8,u4) 0
X(i11,i8,u4) 0
Seq(i11,i9,u4) 0
X(i11,i9,u4) 0
X(i11,i10,u2) 1
Seq(i11,i12,u2) 0
X(i11,i12,u2) 0
Seq(i11,i12,u4) 0
X(i11,i12,u4) 0
Seq(i11,i13,u4) 0
X(i11,i13,u4) 0
Seq(i11,i14,u4) 0
X(i11,i14,u4) 0
Seq(i11,i15,u4) 0
X(i11,i15,u4) 0
Seq(i11,i16,u4) 0
X(i11,i16,u4) 0
Seq(i11,i17,u4) 0
X(i11,i17,u4) 0
Seq(i11,i18,u2) 0
X(i11,i18,u2) 1
Seq(i11,i19,u2) 0
X(i11,i19,u2) 0
Seq(i11,i19,u4) 0
X(i11,i19,u4) 0
Seq(i11,i20,u4) 0
X(i11,i20,u4) 0
Seq(i12,i1,u4) 0
X(i12,i1,u4) 0
Seq(i12,i2,u4) 0
X(i12,i2,u4) 0
Seq(i12,i3,u4) 0
X(i12,i3,u4) 0
Seq(i12,i4,u3) 0
X(i12,i4,u3) 0
Seq(i12,i4,u4) 0
X(i12,i4,u4) 0
Seq(i12,i5,u3) 0
X(i12,i5,u3) 0
Seq(i12,i5,u4) 0
X(i12,i5,u4) 0
Seq(i12,i6,u4) 0
X(i12,i6,u4) 0
Seq(i12,i7,u3) 0
X(i12,i7,u3) 0
Seq(i12,i7,u4) 0
X(i12,i7,u4) 0
Seq(i12,i8,u3) 0
X(i12,i8,u3) 0
Seq(i12,i8,u4) 0
X(i12,i8,u4) 0
Seq(i12,i9,u3) 0
X(i12,i9,u3) 0
Seq(i12,i9,u4) 0
X(i12,i9,u4) 0
Seq(i12,i10,u2) 0
X(i12,i10,u2) 1
X(i12,i11,u2) 1
X(i12,i11,u4) 0
Seq(i12,i13,u4) 0
X(i12,i13,u4) 0
Seq(i12,i14,u4) 0
X(i12,i14,u4) 0
Seq(i12,i15,u4) 0
X(i12,i15,u4) 0
Seq(i12,i16,u4) 0
X(i12,i16,u4) 0
Seq(i12,i17,u4) 0
X(i12,i17,u4) 0
Seq(i12,i18,u2) 0
X(i12,i18,u2) 1
Seq(i12,i19,u2) 0
X(i12,i19,u2) 0
Seq(i12,i19,u4) 0
X(i12,i19,u4) 0
Seq(i12,i20,u3) 0
X(i12,i20,u3) 0
Seq(i12,i20,u4) 0
X(i12,i20,u4) 0
X(i12,i21,u3) 0
X(i12,i22,u3) 0
Seq(i13,i1,u1) 0
X(i13,i1,u1) 0
Seq(i13,i1,u4) 0
X(i13,i1,u4) 0
Seq(i13,i2,u1) 0
X(i13,i2,u1) 0
Seq(i13,i2,u4) 0
X(i13,i2,u4) 0
Seq(i13,i3,u1) 0
X(i13,i3,u1) 0
Seq(i13,i3,u4) 0
X(i13,i3,u4) 0
Seq(i13,i4,u4) 0
X(i13,i4,u4) 0
Seq(i13,i5,u4) 0
X(i13,i5,u4) 0
Seq(i13,i6,u1) 0
X(i13,i6,u1) 0
Seq(i13,i6,u4) 0
X(i13,i6,u4) 0
Seq(i13,i7,u1) 0
X(i13,i7,u1) 0
Seq(i13,i7,u4) 0
X(i13,i7,u4) 0
Seq(i13,i8,u4) 0
X(i13,i8,u4) 0
Seq(i13,i9,u4) 0
X(i13,i9,u4) 0
Seq(i13,i11,u4) 0
X(i13,i11,u4) 0
Seq(i13,i12,u4) 0
X(i13,i12,u4) 0
X(i13,i14,u1) 1
X(i13,i14,u4) 0
X(i13,i15,u1) 0
X(i13,i15,u4) 0
Seq(i13,i16,u1) 0
X(i13,i16,u1) 1
Seq(i13,i16,u4) 0
X(i13,i16,u4) 0
Seq(i13,i17,u1) 0
X(i13,i17,u1) 1
Seq(i13,i17,u4) 0
X(i13,i17,u4) 0
Seq(i13,i19,u4) 0
X(i13,i19,u4) 0
Seq(i13,i20,u1) 0
X(i13,i20,u1) 0
Seq(i13,i20,u4) 0
X(i13,i20,u4) 0
X(i13,i21,u1) 0
Seq(i14,i1,u1) 0
X(i14,i1,u1) 0
Seq(i14,i1,u4) 0
X(i14,i1,u4) 0
Seq(i14,i2,u1) 0
X(i14,i2,u1) 0
Seq(i14,i2,u4) 0
X(i14,i2,u4) 0
Seq(i14,i3,u1) 0
X(i14,i3,u1) 0
Seq(i14,i3,u4) 0
X(i14,i3,u4) 0
Seq(i14,i4,u4) 0
X(i14,i4,u4) 0
Seq(i14,i5,u4) 0
X(i14,i5,u4) 0
Seq(i14,i6,u1) 0
X(i14,i6,u1) 0
Seq(i14,i6,u4) 0
X(i14,i6,u4) 0
Seq(i14,i7,u1) 0
X(i14,i7,u1) 0
Seq(i14,i7,u4) 0
X(i14,i7,u4) 0
X(i14,i8,u4) 0
Seq(i14,i9,u4) 0
X(i14,i9,u4) 0
Seq(i14,i11,u4) 0
X(i14,i11,u4) 0
Seq(i14,i12,u4) 0
X(i14,i12,u4) 0
Seq(i14,i13,u1) 0
X(i14,i13,u1) 0
Seq(i14,i13,u4) 0
X(i14,i13,u4) 0
Seq(i14,i15,u1) 0
X(i14,i15,u1) 0
Seq(i14,i15,u4) 0
X(i14,i15,u4) 0
Seq(i14,i16,u1) 0
X(i14,i16,u1) 1
Seq(i14,i16,u4) 0
X(i14,i16,u4) 0
X(i14,i17,u1) 1
X(i14,i17,u4) 0
Seq(i14,i19,u4) 0
X(i14,i19,u4) 0
Seq(i14,i20,u1) 0
X(i14,i20,u1) 0
Seq(i14,i20,u4) 0
X(i14,i20,u4) 0
X(i14,i21,u1) 0
Seq(i15,i1,u1) 0
X(i15,i1,u1) 0
Seq(i15,i1,u4) 0
X(i15,i1,u4) 0
Seq(i15,i2,u1) 0
X(i15,i2,u1) 0
Seq(i15,i2,u4) 0
X(i15,i2,u4) 1
Seq(i15,i3,u1) 0
X(i15,i3,u1) 0
Seq(i15,i3,u4) 0
X(i15,i3,u4) 0
Seq(i15,i4,u4) 0
X(i15,i4,u4) 0
Seq(i15,i5,u4) 0
X(i15,i5,u4) 0
Seq(i15,i6,u1) 0
X(i15,i6,u1) 0
Seq(i15,i6,u4) 0
X(i15,i6,u4) 1
Seq(i15,i7,u1) 0
X(i15,i7,u1) 0
Seq(i15,i7,u4) 0
X(i15,i7,u4) 0
X(i15,i8,u4) 1
Seq(i15,i9,u4) 0
X(i15,i9,u4) 0
Seq(i15,i11,u4) 0
X(i15,i11,u4) 0
Seq(i15,i12,u4) 0
X(i15,i12,u4) 0
Seq(i15,i13,u1) 0
X(i15,i13,u1) 0
Seq(i15,i13,u4) 0
X(i15,i13,u4) 0
Seq(i15,i14,u1) 0
X(i15,i14,u1) 0
Seq(i15,i14,u4) 0
X(i15,i14,u4) 0
Seq(i15,i16,u1) 0
X(i15,i16,u1) 0
Seq(i15,i16,u4) 0
X(i15,i16,u4) 0
X(i15,i17,u1) 0
X(i15,i17,u4) 0
Seq(i15,i19,u4) 0
X(i15,i19,u4) 0
Seq(i15,i20,u1) 0
X(i15,i20,u1) 0
Seq(i15,i20,u4) 0
X(i15,i20,u4) 0
X(i15,i21,u1) 0
Seq(i16,i1,u1) 0
X(i16,i1,u1) 0
Seq(i16,i1,u4) 0
X(i16,i1,u4) 0
Seq(i16,i2,u1) 0
X(i16,i2,u1) 0
Seq(i16,i2,u4) 0
X(i16,i2,u4) 0
Seq(i16,i3,u1) 0
X(i16,i3,u1) 0
Seq(i16,i3,u4) 0
X(i16,i3,u4) 0
Seq(i16,i4,u4) 0
X(i16,i4,u4) 0
Seq(i16,i5,u4) 0
X(i16,i5,u4) 0
Seq(i16,i6,u1) 0
X(i16,i6,u1) 0
Seq(i16,i6,u4) 0
X(i16,i6,u4) 0
Seq(i16,i7,u1) 0
X(i16,i7,u1) 0
Seq(i16,i7,u4) 0
X(i16,i7,u4) 0
Seq(i16,i8,u4) 0
X(i16,i8,u4) 0
Seq(i16,i9,u4) 0
X(i16,i9,u4) 0
Seq(i16,i11,u4) 0
X(i16,i11,u4) 0
Seq(i16,i12,u4) 0
X(i16,i12,u4) 0
Seq(i16,i13,u1) 0
X(i16,i13,u1) 0
Seq(i16,i13,u4) 0
X(i16,i13,u4) 0
Seq(i16,i14,u1) 0
X(i16,i14,u1) 0
Seq(i16,i14,u4) 0
X(i16,i14,u4) 0
Seq(i16,i15,u1) 0
X(i16,i15,u1) 0
Seq(i16,i15,u4) 0
X(i16,i15,u4) 0
Seq(i16,i17,u1) 0
X(i16,i17,u1) 0
Seq(i16,i17,u4) 0
X(i16,i17,u4) 0
Seq(i16,i19,u4) 0
X(i16,i19,u4) 0
Seq(i16,i20,u1) 0
X(i16,i20,u1) 0
Seq(i16,i20,u4) 0
X(i16,i20,u4) 0
X(i16,i21,u1) 0
Seq(i17,i1,u1) 0
X(i17,i1,u1) 0
Seq(i17,i1,u4) 0
X(i17,i1,u4) 0
Seq(i17,i2,u1) 0
X(i17,i2,u1) 0
Seq(i17,i2,u4) 0
X(i17,i2,u4) 0
Seq(i17,i3,u1) 0
X(i17,i3,u1) 0
Seq(i17,i3,u4) 0
X(i17,i3,u4) 0
Seq(i17,i4,u4) 0
X(i17,i4,u4) 0
Seq(i17,i5,u4) 0
X(i17,i5,u4) 0
Seq(i17,i6,u1) 0
X(i17,i6,u1) 0
Seq(i17,i6,u4) 0
X(i17,i6,u4) 0
Seq(i17,i7,u1) 0
X(i17,i7,u1) 0
Seq(i17,i7,u4) 0
X(i17,i7,u4) 0
Seq(i17,i8,u4) 0
X(i17,i8,u4) 0
Seq(i17,i9,u4) 0
X(i17,i9,u4) 0
Seq(i17,i11,u4) 0
X(i17,i11,u4) 0
Seq(i17,i12,u4) 0
X(i17,i12,u4) 0
Seq(i17,i13,u1) 0
X(i17,i13,u1) 0
Seq(i17,i13,u4) 0
X(i17,i13,u4) 0
Seq(i17,i14,u1) 0
X(i17,i14,u1) 0
Seq(i17,i14,u4) 0
X(i17,i14,u4) 0
Seq(i17,i15,u1) 0
X(i17,i15,u1) 0
Seq(i17,i15,u4) 0
X(i17,i15,u4) 0
X(i17,i16,u1) 1
X(i17,i16,u4) 0
Seq(i17,i19,u4) 0
X(i17,i19,u4) 0
Seq(i17,i20,u1) 0
X(i17,i20,u1) 0
Seq(i17,i20,u4) 0
X(i17,i20,u4) 0
X(i17,i21,u1) 0
X(i18,i10,u2) 0
Seq(i18,i11,u2) 1
X(i18,i11,u2) 0
Seq(i18,i12,u2) 0
X(i18,i12,u2) 0
Seq(i18,i19,u2) 0
X(i18,i19,u2) 0
Seq(i19,i1,u4) 1
X(i19,i1,u4) 1
Seq(i19,i2,u4) 0
X(i19,i2,u4) 1
Seq(i19,i3,u4) 0
X(i19,i3,u4) 1
Seq(i19,i4,u4) 0
X(i19,i4,u4) 0
Seq(i19,i5,u4) 0
X(i19,i5,u4) 1
Seq(i19,i6,u4) 0
X(i19,i6,u4) 1
Seq(i19,i7,u4) 0
X(i19,i7,u4) 0
Seq(i19,i8,u4) 0
X(i19,i8,u4) 1
Seq(i19,i9,u4) 0
X(i19,i9,u4) 0
Seq(i19,i10,u2) 0
X(i19,i10,u2) 0
Seq(i19,i11,u2) 0
X(i19,i11,u2) 0
Seq(i19,i11,u4) 0
X(i19,i11,u4) 0
X(i19,i12,u2) 0
X(i19,i12,u4) 0
Seq(i19,i13,u4) 0
X(i19,i13,u4) 0
Seq(i19,i14,u4) 0
X(i19,i14,u4) 0
Seq(i19,i15,u4) 0
X(i19,i15,u4) 1
Seq(i19,i16,u4) 0
X(i19,i16,u4) 0
Seq(i19,i17,u4) 0
X(i19,i17,u4) 0
Seq(i19,i18,u2) 0
X(i19,i18,u2) 0
Seq(i19,i20,u4) 0
X(i19,i20,u4) 1
Seq(i20,i1,u1) 0
X(i20,i1,u1) 0
Seq(i20,i1,u4) 0
X(i20,i1,u4) 0
Seq(i20,i2,u1) 0
X(i20,i2,u1) 0
Seq(i20,i2,u4) 0
X(i20,i2,u4) 1
Seq(i20,i3,u1) 0
X(i20,i3,u1) 0
Seq(i20,i3,u4) 0
X(i20,i3,u4) 1
X(i20,i4,u3) 0
X(i20,i4,u4) 0
X(i20,i5,u3) 0
X(i20,i5,u4) 1
Seq(i20,i6,u1) 0
X(i20,i6,u1) 0
Seq(i20,i6,u4) 0
X(i20,i6,u4) 1
Seq(i20,i7,u1) 0
X(i20,i7,u1) 0
Seq(i20,i7,u3) 0
X(i20,i7,u3) 0
Seq(i20,i7,u4) 0
X(i20,i7,u4) 0
Seq(i20,i8,u3) 0
X(i20,i8,u3) 0
Seq(i20,i8,u4) 0
X(i20,i8,u4) 1
Seq(i20,i9,u3) 0
X(i20,i9,u3) 0
Seq(i20,i9,u4) 0
X(i20,i9,u4) 0
Seq(i20,i11,u4) 0
X(i20,i11,u4) 0
Seq(i20,i12,u3) 0
X(i20,i12,u3) 0
Seq(i20,i12,u4) 0
X(i20,i12,u4) 0
Seq(i20,i13,u1) 0
X(i20,i13,u1) 0
Seq(i20,i13,u4) 0
X(i20,i13,u4) 0
Seq(i20,i14,u1) 0
X(i20,i14,u1) 0
Seq(i20,i14,u4) 0
X(i20,i14,u4) 0
Seq(i20,i15,u1) 0
X(i20,i15,u1) 0
Seq(i20,i15,u4) 0
X(i20,i15,u4) 1
Seq(i20,i16,u1) 0
X(i20,i16,u1) 0
Seq(i20,i16,u4) 0
X(i20,i16,u4) 0
Seq(i20,i17,u1) 0
X(i20,i17,u1) 0
Seq(i20,i17,u4) 0
X(i20,i17,u4) 0
Seq(i20,i19,u4) 0
X(i20,i19,u4) 0
X(i20,i21,u1) 0
X(i20,i21,u3) 0
X(i20,i22,u3) 0
X(i21,i1,u1) 0
X(i21,i2,u1) 0
X(i21,i3,u1) 0
X(i21,i4,u3) 0
X(i21,i5,u3) 0
X(i21,i6,u1) 0
X(i21,i7,u1) 0
X(i21,i7,u3) 0
X(i21,i8,u3) 0
X(i21,i9,u3) 1
X(i21,i12,u3) 0
X(i21,i13,u1) 0
X(i21,i14,u1) 0
X(i21,i15,u1) 0
X(i21,i16,u1) 0
X(i21,i17,u1) 0
X(i21,i20,u1) 0
X(i21,i20,u3) 0
X(i21,i22,u3) 0
X(i22,i4,u3) 1
X(i22,i5,u3) 0
X(i22,i7,u3) 0
X(i22,i8,u3) 0
X(i22,i9,u3) 1
X(i22,i12,u3) 0
X(i22,i20,u3) 0
Seq(i22,i21,u3) 0
X(i22,i21,u3) 1
Pos(i1,i2,u1) 1000
Pos(i1,i2,u4) 6
Pos(i1,i3,u1) 1000
Pos(i1,i3,u4) 2
Pos(i1,i4,u4) 1007
Pos(i1,i5,u4) 1
Pos(i1,i6,u1) 1000
Pos(i1,i6,u4) 5
Pos(i1,i7,u1) 1000
Pos(i1,i7,u4) 1007
Pos(i1,i8,u4) 4
Pos(i1,i9,u4) 1007
Pos(i1,i11,u4) 1007
Pos(i1,i12,u4) 1007
Pos(i1,i13,u1) 997
Pos(i1,i13,u4) 1007
Pos(i1,i14,u1) 998
Pos(i1,i14,u4) 1007
Pos(i1,i15,u1) 1000
Pos(i1,i15,u4) 3
Pos(i1,i16,u1) 1000
Pos(i1,i16,u4) 1007
Pos(i1,i17,u1) 999
Pos(i1,i17,u4) 1007
Pos(i1,i19,u4) 1000
Pos(i1,i20,u1) 1000
Pos(i1,i20,u4) 0
Pos(i1,i21,u1) 1000
Pos(i2,i1,u1) 1000
Pos(i2,i1,u4) 994
Pos(i2,i3,u1) 1000
Pos(i2,i3,u4) 997
Pos(i2,i4,u4) 1000
Pos(i2,i5,u4) 996
Pos(i2,i6,u1) 1000
Pos(i2,i6,u4) 1000
Pos(i2,i7,u1) 1000
Pos(i2,i7,u4) 1000
Pos(i2,i8,u4) 999
Pos(i2,i9,u4) 1000
Pos(i2,i11,u4) 1000
Pos(i2,i12,u4) 1000
Pos(i2,i13,u1) 997
Pos(i2,i13,u4) 1000
Pos(i2,i14,u1) 998
Pos(i2,i14,u4) 1000
Pos(i2,i15,u1) 1000
Pos(i2,i15,u4) 998
Pos(i2,i16,u1) 1000
Pos(i2,i16,u4) 1000
Pos(i2,i17,u1) 999
Pos(i2,i17,u4) 1000
Pos(i2,i19,u4) 993
Pos(i2,i20,u1) 1000
Pos(i2,i20,u4) 995
Pos(i2,i21,u1) 1000
Pos(i3,i1,u1) 1000
Pos(i3,i1,u4) 998
Pos(i3,i2,u1) 1000
Pos(i3,i2,u4) 3
Pos(i3,i4,u4) 1004
Pos(i3,i5,u4) 1000
Pos(i3,i6,u1) 1000
Pos(i3,i6,u4) 2
Pos(i3,i7,u1) 1000
Pos(i3,i7,u4) 1004
Pos(i3,i8,u4) 1
Pos(i3,i9,u4) 1004
Pos(i3,i11,u4) 1004
Pos(i3,i12,u4) 1004
Pos(i3,i13,u1) 997
Pos(i3,i13,u4) 1004
Pos(i3,i14,u1) 998
Pos(i3,i14,u4) 1004
Pos(i3,i15,u1) 1000
Pos(i3,i15,u4) 0
Pos(i3,i16,u1) 1000
Pos(i3,i16,u4) 1004
Pos(i3,i17,u1) 999
Pos(i3,i17,u4) 1004
Pos(i3,i19,u4) 997
Pos(i3,i20,u1) 1000
Pos(i3,i20,u4) 999
Pos(i3,i21,u1) 1000
Pos(i4,i1,u4) 993
Pos(i4,i2,u4) 1000
Pos(i4,i3,u4) 996
Pos(i4,i5,u3) 1002
Pos(i4,i5,u4) 995
Pos(i4,i6,u4) 999
Pos(i4,i7,u3) 999
Pos(i4,i7,u4) 1000
Pos(i4,i8,u3) 1002
Pos(i4,i8,u4) 998
Pos(i4,i9,u3) 1
Pos(i4,i9,u4) 1000
Pos(i4,i11,u4) 1000
Pos(i4,i12,u3) 1002
Pos(i4,i12,u4) 1000
Pos(i4,i13,u4) 1000
Pos(i4,i14,u4) 1000
Pos(i4,i15,u4) 997
Pos(i4,i16,u4) 1000
Pos(i4,i17,u4) 1000
Pos(i4,i19,u4) 992
Pos(i4,i20,u3) 1002
Pos(i4,i20,u4) 994
Pos(i4,i21,u3) 0
Pos(i4,i22,u3) 1000
Pos(i5,i1,u4) 999
Pos(i5,i2,u4) 4
Pos(i5,i3,u4) 0
Pos(i5,i4,u3) 998
Pos(i5,i4,u4) 1005
Pos(i5,i6,u4) 3
Pos(i5,i7,u3) 996
Pos(i5,i7,u4) 1005
Pos(i5,i8,u3) 1000
Pos(i5,i8,u4) 2
Pos(i5,i9,u3) 1000
Pos(i5,i9,u4) 1005
Pos(i5,i11,u4) 1005
Pos(i5,i12,u3) 1000
Pos(i5,i12,u4) 1005
Pos(i5,i13,u4) 1005
Pos(i5,i14,u4) 1005
Pos(i5,i15,u4) 1
Pos(i5,i16,u4) 1005
Pos(i5,i17,u4) 1005
Pos(i5,i19,u4) 998
Pos(i5,i20,u3) 1000
Pos(i5,i20,u4) 1000
Pos(i5,i21,u3) 999
Pos(i5,i22,u3) 997
Pos(i6,i1,u1) 1000
Pos(i6,i1,u4) 995
Pos(i6,i2,u1) 1000
Pos(i6,i2,u4) 0
Pos(i6,i3,u1) 1000
Pos(i6,i3,u4) 998
Pos(i6,i4,u4) 1001
Pos(i6,i5,u4) 997
Pos(i6,i7,u1) 1000
Pos(i6,i7,u4) 1001
Pos(i6,i8,u4) 1000
Pos(i6,i9,u4) 1001
Pos(i6,i11,u4) 1001
Pos(i6,i12,u4) 1001
Pos(i6,i13,u1) 997
Pos(i6,i13,u4) 1001
Pos(i6,i14,u1) 998
Pos(i6,i14,u4) 1001
Pos(i6,i15,u1) 1000
Pos(i6,i15,u4) 999
Pos(i6,i16,u1) 1000
Pos(i6,i16,u4) 1001
Pos(i6,i17,u1) 999
Pos(i6,i17,u4) 1001
Pos(i6,i19,u4) 994
Pos(i6,i20,u1) 1000
Pos(i6,i20,u4) 996
Pos(i6,i21,u1) 1000
Pos(i7,i1,u1) 1000
Pos(i7,i1,u4) 993
Pos(i7,i2,u1) 1000
Pos(i7,i2,u4) 1000
Pos(i7,i3,u1) 1000
Pos(i7,i3,u4) 996
Pos(i7,i4,u3) 1
Pos(i7,i4,u4) 1000
Pos(i7,i5,u3) 1004
Pos(i7,i5,u4) 995
Pos(i7,i6,u1) 1000
Pos(i7,i6,u4) 999
Pos(i7,i8,u3) 1004
Pos(i7,i8,u4) 998
Pos(i7,i9,u3) 3
Pos(i7,i9,u4) 1000
Pos(i7,i11,u4) 1000
Pos(i7,i12,u3) 1004
Pos(i7,i12,u4) 1000
Pos(i7,i13,u1) 997
Pos(i7,i13,u4) 1000
Pos(i7,i14,u1) 998
Pos(i7,i14,u4) 1000
Pos(i7,i15,u1) 1000
Pos(i7,i15,u4) 997
Pos(i7,i16,u1) 1000
Pos(i7,i16,u4) 1000
Pos(i7,i17,u1) 999
Pos(i7,i17,u4) 1000
Pos(i7,i19,u4) 992
Pos(i7,i20,u1) 1000
Pos(i7,i20,u3) 1004
Pos(i7,i20,u4) 994
Pos(i7,i21,u1) 1000
Pos(i7,i21,u3) 2
Pos(i7,i22,u3) 0
Pos(i8,i1,u4) 996
Pos(i8,i2,u4) 1
Pos(i8,i3,u4) 999
Pos(i8,i4,u3) 998
Pos(i8,i4,u4) 1002
Pos(i8,i5,u3) 1000
Pos(i8,i5,u4) 998
Pos(i8,i6,u4) 0
Pos(i8,i7,u3) 996
Pos(i8,i7,u4) 1002
Pos(i8,i9,u3) 1000
Pos(i8,i9,u4) 1002
Pos(i8,i11,u4) 1002
Pos(i8,i12,u3) 1000
Pos(i8,i12,u4) 1002
Pos(i8,i13,u4) 1002
Pos(i8,i14,u4) 1002
Pos(i8,i15,u4) 1000
Pos(i8,i16,u4) 1002
Pos(i8,i17,u4) 1002
Pos(i8,i19,u4) 995
Pos(i8,i20,u3) 1000
Pos(i8,i20,u4) 997
Pos(i8,i21,u3) 999
Pos(i8,i22,u3) 997
Pos(i9,i1,u4) 993
Pos(i9,i2,u4) 1000
Pos(i9,i3,u4) 996
Pos(i9,i4,u3) 999
Pos(i9,i4,u4) 1000
Pos(i9,i5,u3) 1000
Pos(i9,i5,u4) 995
Pos(i9,i6,u4) 999
Pos(i9,i7,u3) 997
Pos(i9,i7,u4) 1000
Pos(i9,i8,u3) 1000
Pos(i9,i8,u4) 998
Pos(i9,i11,u4) 1000
Pos(i9,i12,u3) 1000
Pos(i9,i12,u4) 1000
Pos(i9,i13,u4) 1000
Pos(i9,i14,u4) 1000
Pos(i9,i15,u4) 997
Pos(i9,i16,u4) 1000
Pos(i9,i17,u4) 1000
Pos(i9,i19,u4) 992
Pos(i9,i20,u3) 1000
Pos(i9,i20,u4) 994
Pos(i9,i21,u3) 1000
Pos(i9,i22,u3) 998
Pos(i10,i11,u2) 1000
Pos(i10,i12,u2) 999
Pos(i10,i18,u2) 0
Pos(i10,i19,u2) 1001
Pos(i11,i1,u4) 993
Pos(i11,i2,u4) 1000
Pos(i11,i3,u4) 996
Pos(i11,i4,u4) 1000
Pos(i11,i5,u4) 995
Pos(i11,i6,u4) 999
Pos(i11,i7,u4) 1000
Pos(i11,i8,u4) 998
Pos(i11,i9,u4) 1000
Pos(i11,i10,u2) 0
Pos(i11,i12,u2) 1000
Pos(i11,i12,u4) 1000
Pos(i11,i13,u4) 1000
Pos(i11,i14,u4) 1000
Pos(i11,i15,u4) 997
Pos(i11,i16,u4) 1000
Pos(i11,i17,u4) 1000
Pos(i11,i18,u2) 1
Pos(i11,i19,u2) 1002
Pos(i11,i19,u4) 992
Pos(i11,i20,u4) 994
Pos(i12,i1,u4) 993
Pos(i12,i2,u4) 1000
Pos(i12,i3,u4) 996
Pos(i12,i4,u3) 998
Pos(i12,i4,u4) 1000
Pos(i12,i5,u3) 1000
Pos(i12,i5,u4) 995
Pos(i12,i6,u4) 999
Pos(i12,i7,u3) 996
Pos(i12,i7,u4) 1000
Pos(i12,i8,u3) 1000
Pos(i12,i8,u4) 998
Pos(i12,i9,u3) 1000
Pos(i12,i9,u4) 1000
Pos(i12,i10,u2) 1
Pos(i12,i11,u2) 0
Pos(i12,i11,u4) 1000
Pos(i12,i13,u4) 1000
Pos(i12,i14,u4) 1000
Pos(i12,i15,u4) 997
Pos(i12,i16,u4) 1000
Pos(i12,i17,u4) 1000
Pos(i12,i18,u2) 2
Pos(i12,i19,u2) 1003
Pos(i12,i19,u4) 992
Pos(i12,i20,u3) 1000
Pos(i12,i20,u4) 994
Pos(i12,i21,u3) 999
Pos(i12,i22,u3) 997
Pos(i13,i1,u1) 1003
Pos(i13,i1,u4) 993
Pos(i13,i2,u1) 1003
Pos(i13,i2,u4) 1000
Pos(i13,i3,u1) 1003
Pos(i13,i3,u4) 996
Pos(i13,i4,u4) 1000
Pos(i13,i5,u4) 995
Pos(i13,i6,u1) 1003
Pos(i13,i6,u4) 999
Pos(i13,i7,u1) 1003
Pos(i13,i7,u4) 1000
Pos(i13,i8,u4) 998
Pos(i13,i9,u4) 1000
Pos(i13,i11,u4) 1000
Pos(i13,i12,u4) 1000
Pos(i13,i14,u1) 0
Pos(i13,i14,u4) 1000
Pos(i13,i15,u1) 1003
Pos(i13,i15,u4) 997
Pos(i13,i16,u1) 2
Pos(i13,i16,u4) 1000
Pos(i13,i17,u1) 1
Pos(i13,i17,u4) 1000
Pos(i13,i19,u4) 992
Pos(i13,i20,u1) 1003
Pos(i13,i20,u4) 994
Pos(i13,i21,u1) 1003
Pos(i14,i1,u1) 1002
Pos(i14,i1,u4) 993
Pos(i14,i2,u1) 1002
Pos(i14,i2,u4) 1000
Pos(i14,i3,u1) 1002
Pos(i14,i3,u4) 996
Pos(i14,i4,u4) 1000
Pos(i14,i5,u4) 995
Pos(i14,i6,u1) 1002
Pos(i14,i6,u4) 999
Pos(i14,i7,u1) 1002
Pos(i14,i7,u4) 1000
Pos(i14,i8,u4) 998
Pos(i14,i9,u4) 1000
Pos(i14,i11,u4) 1000
Pos(i14,i12,u4) 1000
Pos(i14,i13,u1) 1000
Pos(i14,i13,u4) 1000
Pos(i14,i15,u1) 1002
Pos(i14,i15,u4) 997
Pos(i14,i16,u1) 1
Pos(i14,i16,u4) 1000
Pos(i14,i17,u1) 0
Pos(i14,i17,u4) 1000
Pos(i14,i19,u4) 992
Pos(i14,i20,u1) 1002
Pos(i14,i20,u4) 994
Pos(i14,i21,u1) 1002
Pos(i15,i1,u1) 1000
Pos(i15,i1,u4) 997
Pos(i15,i2,u1) 1000
Pos(i15,i2,u4) 2
Pos(i15,i3,u1) 1000
Pos(i15,i3,u4) 1000
Pos(i15,i4,u4) 1003
Pos(i15,i5,u4) 999
Pos(i15,i6,u1) 1000
Pos(i15,i6,u4) 1
Pos(i15,i7,u1) 1000
Pos(i15,i7,u4) 1003
Pos(i15,i8,u4) 0
Pos(i15,i9,u4) 1003
Pos(i15,i11,u4) 1003
Pos(i15,i12,u4) 1003
Pos(i15,i13,u1) 997
Pos(i15,i13,u4) 1003
Pos(i15,i14,u1) 998
Pos(i15,i14,u4) 1003
Pos(i15,i16,u1) 1000
Pos(i15,i16,u4) 1003
Pos(i15,i17,u1) 999
Pos(i15,i17,u4) 1003
Pos(i15,i19,u4) 996
Pos(i15,i20,u1) 1000
Pos(i15,i20,u4) 998
Pos(i15,i21,u1) 1000
Pos(i16,i1,u1) 1000
Pos(i16,i1,u4) 993
Pos(i16,i2,u1) 1000
Pos(i16,i2,u4) 1000
Pos(i16,i3,u1) 1000
Pos(i16,i3,u4) 996
Pos(i16,i4,u4) 1000
Pos(i16,i5,u4) 995
Pos(i16,i6,u1) 1000
Pos(i16,i6,u4) 999
Pos(i16,i7,u1) 1000
Pos(i16,i7,u4) 1000
Pos(i16,i8,u4) 998
Pos(i16,i9,u4) 1000
Pos(i16,i11,u4) 1000
Pos(i16,i12,u4) 1000
Pos(i16,i13,u1) 998
Pos(i16,i13,u4) 1000
Pos(i16,i14,u1) 999
Pos(i16,i14,u4) 1000
Pos(i16,i15,u1) 1000
Pos(i16,i15,u4) 997
Pos(i16,i17,u1) 1000
Pos(i16,i17,u4) 1000
Pos(i16,i19,u4) 992
Pos(i16,i20,u1) 1000
Pos(i16,i20,u4) 994
Pos(i16,i21,u1) 1000
Pos(i17,i1,u1) 1001
Pos(i17,i1,u4) 993
Pos(i17,i2,u1) 1001
Pos(i17,i2,u4) 1000
Pos(i17,i3,u1) 1001
Pos(i17,i3,u4) 996
Pos(i17,i4,u4) 1000
Pos(i17,i5,u4) 995
Pos(i17,i6,u1) 1001
Pos(i17,i6,u4) 999
Pos(i17,i7,u1) 1001
Pos(i17,i7,u4) 1000
Pos(i17,i8,u4) 998
Pos(i17,i9,u4) 1000
Pos(i17,i11,u4) 1000
Pos(i17,i12,u4) 1000
Pos(i17,i13,u1) 999
Pos(i17,i13,u4) 1000
Pos(i17,i14,u1) 1000
Pos(i17,i14,u4) 1000
Pos(i17,i15,u1) 1001
Pos(i17,i15,u4) 997
Pos(i17,i16,u1) 0
Pos(i17,i16,u4) 1000
Pos(i17,i19,u4) 992
Pos(i17,i20,u1) 1001
Pos(i17,i20,u4) 994
Pos(i17,i21,u1) 1001
Pos(i18,i10,u2) 1000
Pos(i18,i11,u2) 999
Pos(i18,i12,u2) 998
Pos(i18,i19,u2) 1000
Pos(i19,i1,u4) 0
Pos(i19,i2,u4) 7
Pos(i19,i3,u4) 3
Pos(i19,i4,u4) 1008
Pos(i19,i5,u4) 2
Pos(i19,i6,u4) 6
Pos(i19,i7,u4) 1008
Pos(i19,i8,u4) 5
Pos(i19,i9,u4) 1008
Pos(i19,i10,u2) 999
Pos(i19,i11,u2) 998
Pos(i19,i11,u4) 1008
Pos(i19,i12,u2) 997
Pos(i19,i12,u4) 1008
Pos(i19,i13,u4) 1008
Pos(i19,i14,u4) 1008
Pos(i19,i15,u4) 4
Pos(i19,i16,u4) 1008
Pos(i19,i17,u4) 1008
Pos(i19,i18,u2) 1000
Pos(i19,i20,u4) 1
Pos(i20,i1,u1) 1000
Pos(i20,i1,u4) 1000
Pos(i20,i2,u1) 1000
Pos(i20,i2,u4) 5
Pos(i20,i3,u1) 1000
Pos(i20,i3,u4) 1
Pos(i20,i4,u3) 998
Pos(i20,i4,u4) 1006
Pos(i20,i5,u3) 1000
Pos(i20,i5,u4) 0
Pos(i20,i6,u1) 1000
Pos(i20,i6,u4) 4
Pos(i20,i7,u1) 1000
Pos(i20,i7,u3) 996
Pos(i20,i7,u4) 1006
Pos(i20,i8,u3) 1000
Pos(i20,i8,u4) 3
Pos(i20,i9,u3) 1000
Pos(i20,i9,u4) 1006
Pos(i20,i11,u4) 1006
Pos(i20,i12,u3) 1000
Pos(i20,i12,u4) 1006
Pos(i20,i13,u1) 997
Pos(i20,i13,u4) 1006
Pos(i20,i14,u1) 998
Pos(i20,i14,u4) 1006
Pos(i20,i15,u1) 1000
Pos(i20,i15,u4) 2
Pos(i20,i16,u1) 1000
Pos(i20,i16,u4) 1006
Pos(i20,i17,u1) 999
Pos(i20,i17,u4) 1006
Pos(i20,i19,u4) 999
Pos(i20,i21,u1) 1000
Pos(i20,i21,u3) 999
Pos(i20,i22,u3) 997
Pos(i21,i1,u1) 1000
Pos(i21,i2,u1) 1000
Pos(i21,i3,u1) 1000
Pos(i21,i4,u3) 1000
Pos(i21,i5,u3) 1001
Pos(i21,i6,u1) 1000
Pos(i21,i7,u1) 1000
Pos(i21,i7,u3) 998
Pos(i21,i8,u3) 1001
Pos(i21,i9,u3) 0
Pos(i21,i12,u3) 1001
Pos(i21,i13,u1) 997
Pos(i21,i14,u1) 998
Pos(i21,i15,u1) 1000
Pos(i21,i16,u1) 1000
Pos(i21,i17,u1) 999
Pos(i21,i20,u1) 1000
Pos(i21,i20,u3) 1001
Pos(i21,i22,u3) 999
Pos(i22,i4,u3) 0
Pos(i22,i5,u3) 1003
Pos(i22,i7,u3) 1000
Pos(i22,i8,u3) 1003
Pos(i22,i9,u3) 2
Pos(i22,i12,u3) 1003
Pos(i22,i20,u3) 1003
Pos(i22,i21,u3) 1
Seq(i1,i3,u1) 0
Seq(i1,i3,u4) 0
Seq(i1,i7,u1) 0
Seq(i1,i7,u4) 0
Seq(i1,i9,u4) 0
Seq(i1,i21,u1) 0
Seq(i2,i16,u1) 0
Seq(i2,i16,u4) 1
Seq(i2,i21,u1) 0
Seq(i3,i14,u1) 0
Seq(i3,i14,u4) 0
Seq(i3,i15,u1) 0
Seq(i3,i15,u4) 1
Seq(i3,i21,u1) 0
Seq(i4,i8,u3) 0
Seq(i4,i8,u4) 0
Seq(i4,i21,u3) 1
Seq(i4,i22,u3) 0
Seq(i5,i3,u4) 1
Seq(i5,i21,u3) 0
Seq(i5,i22,u3) 0
Seq(i6,i2,u1) 0
Seq(i6,i2,u4) 1
Seq(i6,i21,u1) 0
Seq(i7,i3,u1) 0
Seq(i7,i3,u4) 0
Seq(i7,i4,u3) 0
Seq(i7,i4,u4) 0
Seq(i7,i21,u1) 0
Seq(i7,i21,u3) 0
Seq(i7,i22,u3) 1
Seq(i8,i6,u4) 1
Seq(i8,i21,u3) 0
Seq(i8,i22,u3) 0
Seq(i9,i21,u3) 0
Seq(i9,i22,u3) 0
Seq(i10,i18,u2) 1
Seq(i11,i10,u2) 1
Seq(i12,i11,u2) 1
Seq(i12,i11,u4) 0
Seq(i12,i21,u3) 0
Seq(i12,i22,u3) 0
Seq(i13,i14,u1) 1
Seq(i13,i14,u4) 0
Seq(i13,i15,u1) 0
Seq(i13,i15,u4) 0
Seq(i13,i21,u1) 0
Seq(i14,i8,u4) 0
Seq(i14,i17,u1) 1
Seq(i14,i17,u4) 0
Seq(i14,i21,u1) 0
Seq(i15,i8,u4) 1
Seq(i15,i17,u1) 0
Seq(i15,i17,u4) 0
Seq(i15,i21,u1) 0
Seq(i16,i21,u1) 1
Seq(i17,i16,u1) 1
Seq(i17,i16,u4) 0
Seq(i17,i21,u1) 0
Seq(i18,i10,u2) 0
Seq(i19,i12,u2) 0
Seq(i19,i12,u4) 0
Seq(i20,i4,u3) 0
Seq(i20,i4,u4) 0
Seq(i20,i5,u3) 0
Seq(i20,i5,u4) 1
Seq(i20,i21,u1) 0
Seq(i20,i21,u3) 0
Seq(i20,i22,u3) 0
Seq(i21,i1,u1) 0
Seq(i21,i2,u1) 0
Seq(i21,i3,u1) 0
Seq(i21,i4,u3) 0
Seq(i21,i5,u3) 0
Seq(i21,i6,u1) 0
Seq(i21,i7,u1) 0
Seq(i21,i7,u3) 0
Seq(i21,i8,u3) 0
Seq(i21,i9,u3) 1
Seq(i21,i12,u3) 0
Seq(i21,i13,u1) 0
Seq(i21,i14,u1) 0
Seq(i21,i15,u1) 0
Seq(i21,i16,u1) 0
Seq(i21,i17,u1) 0
Seq(i21,i20,u1) 0
Seq(i21,i20,u3) 0
Seq(i21,i22,u3) 0
Seq(i22,i4,u3) 1
Seq(i22,i5,u3) 0
Seq(i22,i7,u3) 0
Seq(i22,i8,u3) 0
Seq(i22,i9,u3) 0
Seq(i22,i12,u3) 0
Seq(i22,i20,u3) 0
